131 300 242 54 78 65 162 83 169 105 195 217 56 60 218 100 256 34 4 179 13 49 247 225 119 76 106 228 44 239 233 45 21 226 98 98 42 260 232 210 116 127 178 223 238 95 23 193 129 26 123 193 75 69 118 245 144 275 224 239 265 156 283 285 81 81 135 122 92 118 31 207 244 261 130 181 55 152 73 235 229 195 128 55 15 297 299 159 23 223 97 287 130 132 23 211 212 209 32 55 27 115 261 22 127 142 203 181 45 27 168 274 274 47 80 40 95 79 198 117 53 47 155 234 230 177 144 193 138 228 247 164 94 